7
 9999   22   40   15   35   20   30
   22 9999    7   14   15   20    8
   40    7 9999   19   14   22    5
   15   14   19 9999   12   14    9
   35   15   14   12 9999    8    7
   20   20   22   14    8 9999   16
   30    8    5    9    7   16 9999
